0000000000000000
0000000000000000
0000000000000000
0000000000000000
0001111111110000
0011100000011000
0000000000011000
0000000000011000
0000000000011000
0000000000011000
0000000000011000
0000000000011000
0001111111111110
0000000000000000
0000000000000000
0000000000000000
